605
1   1   30   28   0 17 37 44 0
1   2   100  77   0 23 7 43 24 14 0
1   3   64   79   0 13 41 40 19 42 0
1   4   46   78   0 25 18 4 0
2   1   28   30   0 27 6 0
2   2   0    0    0 0
2   3   24   59   0 47 12 46 0
2   4   77   80   0 48 8 26 31 28 22 0
3   1   27   47   0 5 38 9 0
3   2   63   80   0 49 15 45 33 39 10 0
3   3   46   78   0 16 50 21 34 30 0
3   4   0    0    0 0
4   1   46   67   0 35 36 3 20 0
4   2   0    0    0 0
4   3   54   74   0 29 11 32 1 2 0
4   4   0    0    0 0